# Objective value = 1.9363151989993962e+03
x[0] 0
x[1] 0
x[2] 0
x[3] 0
x[4] 0
x[5] 1
x[6] 1
x[7] 1
x[8] 1
x[9] 0
x[10] 1
x[11] 1
x[12] 0
x[13] 0
x[14] 0
x[15] 0
x[16] 0
x[17] 1
x[18] 0
x[19] 0
x[20] 1
x[21] 1
x[22] 1
x[23] 0
x[24] 1
x[25] 0
x[26] 1
x[27] 1
x[28] 0
x[29] 0
x[30] 1
x[31] 1
x[32] 1
x[33] 0
x[34] 1
x[35] 0
x[36] 1
x[37] 1
x[38] 0
x[39] 0
x[40] 1
x[41] 1
x[42] 0
x[43] 1
x[44] 1
x[45] 1
x[46] 0
x[47] 0
x[48] 1
x[49] 1
x[50] 0
x[51] 1
x[52] 0
x[53] 0
x[54] 1
x[55] 1
x[56] 1
x[57] 1
x[58] 1
x[59] 0
x[60] 0
x[61] 0
x[62] 1
x[63] 1
x[64] 1
x[65] 1
x[66] 0
x[67] 1
x[68] 0
x[69] 0
x[70] 1
x[71] 1
x[72] 1
x[73] 1
x[74] 1
x[75] 0
x[76] 1
x[77] 0
x[78] 0
x[79] 0
x[80] 1
x[81] 1
x[82] 1
x[83] 0
x[84] 1
x[85] 0
x[86] 1
x[87] 1
x[88] 1
x[89] 0
x[90] 0
x[91] 0
x[92] 0
x[93] 0
x[94] 0
x[95] 1
x[96] 1
x[97] 1
x[98] 1
x[99] 1
x[100] 1
x[101] 1
x[102] 0
x[103] 0
x[104] 1
x[105] 0
x[106] 0
x[107] 1
x[108] 0
x[109] 1
x[110] 0
x[111] 1
x[112] 0
x[113] 1
x[114] 1
x[115] 1
x[116] 1
x[117] 0
x[118] 1
x[119] 0
x[120] 1
x[121] 1
x[122] 1
x[123] 1
x[124] 0
x[125] 1
x[126] 1
x[127] 1
x[128] 0
x[129] 1
x[130] 0
x[131] 0
x[132] 0
x[133] 1
x[134] 1
x[135] 1
x[136] 0
x[137] 0
x[138] 1
x[139] 1
x[140] 1
x[141] 0
x[142] 0
x[143] 0
x[144] 1
x[145] 1
x[146] 0
x[147] 1
x[148] 1
x[149] 1
x[150] 1
x[151] 0
x[152] 1
x[153] 1
x[154] 1
x[155] 1
x[156] 0
x[157] 1
x[158] 1
x[159] 1
x[160] 1
x[161] 1
x[162] 1
x[163] 0
x[164] 0
x[165] 0
x[166] 1
x[167] 1
x[168] 1
x[169] 1
x[170] 0
x[171] 1
x[172] 1
x[173] 0
x[174] 0
x[175] 1
x[176] 0
x[177] 1
x[178] 1
x[179] 1
x[180] 0
x[181] 0
x[182] 0
x[183] 0
x[184] 0
x[185] 1
x[186] 0
x[187] 0
x[188] 1
x[189] 1
x[190] 0
x[191] 0
x[192] 1
x[193] 1
x[194] 1
x[195] 0
x[196] 1
x[197] 1
x[198] 0
x[199] 0
x[200] 0
x[201] 1
x[202] 0
x[203] 0
x[204] 0
x[205] 0
x[206] 1
x[207] 0
x[208] 0
x[209] 1
x[210] 0
x[211] 0
x[212] 1
x[213] 1
x[214] 0
x[215] 0
x[216] 0
x[217] 0
x[218] 0
x[219] 1
x[220] 1
x[221] 0
x[222] 0
x[223] 1
x[224] 0
x[225] 0
x[226] 1
x[227] 1
x[228] 1
x[229] 1
x[230] 0
x[231] 0
x[232] 0
x[233] 0
x[234] 1
x[235] 1
x[236] 0
x[237] 0
x[238] 1
x[239] 1
x[240] 1
x[241] 1
x[242] 1
x[243] 1
x[244] 0
x[245] 0
x[246] 0
x[247] 1
x[248] 0
x[249] 1
x[250] 1
x[251] 0
x[252] 0
x[253] 0
x[254] 0
x[255] 0
x[256] 1
x[257] 1
x[258] 1
x[259] 1
x[260] 1
x[261] 0
x[262] 0
x[263] 1
x[264] 0
x[265] 1
x[266] 1
x[267] 0
x[268] 0
x[269] 0
x[270] 0
x[271] 1
x[272] 1
x[273] 1
x[274] 1
x[275] 1
x[276] 1
x[277] 1
x[278] 1
x[279] 0
x[280] 0
x[281] 1
x[282] 1
x[283] 0
x[284] 1
x[285] 0
x[286] 1
x[287] 1
x[288] 1
x[289] 1
x[290] 1
x[291] 1
x[292] 1
x[293] 0
x[294] 1
x[295] 1
x[296] 1
x[297] 1
x[298] 1
x[299] 0
x[300] 1
x[301] 1
x[302] 0
x[303] 1
x[304] 1
x[305] 0
x[306] 1
x[307] 1
x[308] 0
x[309] 1
x[310] 1
x[311] 1
x[312] 1
x[313] 0
x[314] 0
x[315] 1
x[316] 0
x[317] 1
x[318] 1
x[319] 0
x[320] 0
x[321] 0
x[322] 0
x[323] 1
x[324] 0
x[325] 1
x[326] 0
x[327] 0
x[328] 1
x[329] 1
x[330] 1
x[331] 1
x[332] 0
x[333] 1
x[334] 1
x[335] 1
x[336] 0
x[337] 0
x[338] 1
x[339] 0
x[340] 0
x[341] 1
x[342] 1
x[343] 1
x[344] 0
x[345] 1
x[346] 1
x[347] 0
x[348] 1
x[349] 1
x[350] 1
x[351] 1
x[352] 0
x[353] 1
x[354] 0
x[355] 1
x[356] 0
x[357] 0
x[358] 0
x[359] 1
x[360] 0
x[361] 0
x[362] 1
x[363] 1
x[364] 1
x[365] 0
x[366] 1
x[367] 1
x[368] 0
x[369] 1
x[370] 0
x[371] 1
x[372] 1
x[373] 0
x[374] 1
x[375] 1
x[376] 1
x[377] 1
x[378] 0
x[379] 0
x[380] 1
x[381] 1
x[382] 1
x[383] 1
x[384] 0
x[385] 1
x[386] 0
x[387] 0
x[388] 1
x[389] 0
x[390] 1
x[391] 0
x[392] 0
x[393] 1
x[394] 1
x[395] 1
x[396] 1
x[397] 1
x[398] 0
x[399] 1
x[400] 1
x[401] 1
x[402] 1
x[403] 0
x[404] 0
x[405] 0
x[406] 1
x[407] 0
x[408] 0
x[409] 0
x[410] 1
x[411] 1
x[412] 0
x[413] 1
x[414] 1
x[415] 0
x[416] 1
x[417] 0
x[418] 1
x[419] 0
x[420] 0
x[421] 1
x[422] 0
x[423] 0
x[424] 1
x[425] 0
x[426] 1
x[427] 0
x[428] 1
x[429] 0
x[430] 1
x[431] 1
x[432] 1
x[433] 1
x[434] 1
x[435] 0
x[436] 1
x[437] 0
x[438] 1
x[439] 1
x[440] 0
x[441] 1
x[442] 0
x[443] 0
x[444] 0
x[445] 0
x[446] 1
x[447] 1
x[448] 1
x[449] 1
x[450] 0
x[451] 1
x[452] 0
x[453] 1
x[454] 1
x[455] 1
x[456] 1
x[457] 0
x[458] 1
x[459] 1
x[460] 1
x[461] 1
x[462] 0
x[463] 0
x[464] 1
x[465] 1
x[466] 1
x[467] 0
x[468] 0
x[469] 0
x[470] 1
x[471] 0
x[472] 1
x[473] 0
x[474] 0
x[475] 1
x[476] 1
x[477] 0
x[478] 0
x[479] 0
x[480] 1
x[481] 1
x[482] 1
x[483] 1
x[484] 0
x[485] 1
x[486] 1
x[487] 0
x[488] 1
x[489] 0
x[490] 0
x[491] 0
x[492] 0
x[493] 1
x[494] 0
x[495] 1
x[496] 0
x[497] 1
x[498] 1
x[499] 0
x[500] 1
x[501] 1
x[502] 0
x[503] 1
x[504] 0
x[505] 1
x[506] 0
x[507] 0
x[508] 0
x[509] 1
x[510] 1
x[511] 1
x[512] 1
x[513] 0
x[514] 1
x[515] 1
x[516] 1
x[517] 0
x[518] 1
x[519] 0
x[520] 1
x[521] 1
x[522] 0
x[523] 1
x[524] 1
x[525] 0
x[526] 0
x[527] 0
x[528] 0
x[529] 0
x[530] 1
x[531] 0
x[532] 1
x[533] 0
x[534] 1
x[535] 1
x[536] 1
x[537] 1
x[538] 0
x[539] 0
x[540] 0
x[541] 1
x[542] 1
x[543] 1
x[544] 0
x[545] 1
x[546] 1
x[547] 1
x[548] 0
x[549] 1
x[550] 1
x[551] 1
x[552] 0
x[553] 0
x[554] 1
x[555] 0
x[556] 1
x[557] 0
x[558] 0
x[559] 1
x[560] 0
x[561] 1
x[562] 1
x[563] 0
x[564] 1
x[565] 1
x[566] 1
x[567] 0
x[568] 1
x[569] 1
x[570] 1
x[571] 0
x[572] 1
x[573] 0
x[574] 1
x[575] 1
x[576] 1
x[577] 1
x[578] 0
x[579] 0
x[580] 0
x[581] 0
x[582] 0
x[583] 1
x[584] 1
x[585] 0
x[586] 1
x[587] 0
x[588] 0
x[589] 0
x[590] 1
x[591] 1
x[592] 0
x[593] 1
x[594] 0
x[595] 0
x[596] 0
x[597] 1
x[598] 0
x[599] 0
x[600] 1
x[601] 1
x[602] 0
x[603] 1
x[604] 1
x[605] 1
x[606] 0
x[607] 0
x[608] 1
x[609] 0
x[610] 0
x[611] 0
x[612] 1
x[613] 0
x[614] 1
x[615] 1
x[616] 1
x[617] 1
x[618] 0
x[619] 0
x[620] 1
x[621] 1
x[622] 1
x[623] 0
x[624] 1
x[625] 1
x[626] 1
x[627] 1
x[628] 0
x[629] 0
x[630] 1
x[631] 1
x[632] 1
x[633] 1
x[634] 0
x[635] 1
x[636] 0
x[637] 1
x[638] 1
x[639] 0
x[640] 0
x[641] 1
x[642] 0
x[643] 1
x[644] 0
x[645] 1
x[646] 0
x[647] 1
x[648] 1
x[649] 1
x[650] 0
x[651] 0
x[652] 1
x[653] 0
x[654] 1
x[655] 0
x[656] 0
x[657] 0
x[658] 0
x[659] 0
x[660] 1
x[661] 0
x[662] 0
x[663] 0
x[664] 1
x[665] 0
x[666] 1
x[667] 1
x[668] 0
x[669] 1
x[670] 0
x[671] 1
x[672] 0
x[673] 0
x[674] 1
x[675] 1
x[676] 1
x[677] 1
x[678] 1
x[679] 1
x[680] 0
x[681] 0
x[682] 1
x[683] 1
x[684] 0
x[685] 1
x[686] 0
x[687] 0
x[688] 0
x[689] 1
x[690] 1
x[691] 1
x[692] 1
x[693] 1
x[694] 1
x[695] 1
x[696] 0
x[697] 0
x[698] 1
x[699] 0
x[700] 1
x[701] 1
x[702] 1
x[703] 0
x[704] 1
x[705] 1
x[706] 1
x[707] 1
x[708] 0
x[709] 1
x[710] 1
x[711] 1
x[712] 0
x[713] 0
x[714] 0
x[715] 1
x[716] 1
x[717] 1
x[718] 1
x[719] 0
x[720] 1
x[721] 1
x[722] 0
x[723] 1
x[724] 1
x[725] 1
x[726] 1
x[727] 1
x[728] 0
x[729] 0
x[730] 0
x[731] 1
x[732] 1
x[733] 1
x[734] 0
x[735] 1
x[736] 1
x[737] 1
x[738] 1
x[739] 1
x[740] 1
x[741] 0
x[742] 1
x[743] 1
x[744] 1
x[745] 1
x[746] 0
x[747] 1
x[748] 0
x[749] 0
x[750] 0
x[751] 0
x[752] 1
x[753] 1
x[754] 0
x[755] 1
x[756] 1
x[757] 1
x[758] 1
x[759] 1
x[760] 1
x[761] 0
x[762] 0
x[763] 0
x[764] 0
x[765] 0
x[766] 1
x[767] 1
x[768] 1
x[769] 1
x[770] 0
x[771] 1
x[772] 0
x[773] 1
x[774] 0
x[775] 1
x[776] 1
x[777] 1
x[778] 1
x[779] 1
x[780] 1
x[781] 0
x[782] 1
x[783] 1
x[784] 0
x[785] 0
x[786] 0
x[787] 0
x[788] 0
x[789] 1
x[790] 1
x[791] 0
x[792] 0
x[793] 1
x[794] 1
x[795] 0
x[796] 0
x[797] 1
x[798] 0
x[799] 1
x[800] 0
x[801] 0
x[802] 1
x[803] 0
x[804] 1
x[805] 0
x[806] 0
x[807] 1
x[808] 1
x[809] 0
x[810] 0
x[811] 0
x[812] 1
x[813] 0
x[814] 0
x[815] 1
x[816] 1
x[817] 1
x[818] 0
x[819] 1
x[820] 1
x[821] 0
x[822] 1
x[823] 1
x[824] 0
x[825] 1
x[826] 0
x[827] 1
x[828] 1
x[829] 1
x[830] 1
x[831] 1
x[832] 1
x[833] 0
x[834] 1
x[835] 0
x[836] 1
x[837] 1
x[838] 0
x[839] 0
x[840] 0
x[841] 1
x[842] 0
x[843] 0
x[844] 1
x[845] 0
x[846] 0
x[847] 0
x[848] 0
x[849] 0
x[850] 1
x[851] 1
x[852] 1
x[853] 0
x[854] 0
x[855] 1
x[856] 1
x[857] 1
x[858] 1
x[859] 0
x[860] 1
x[861] 1
x[862] 0
x[863] 1
x[864] 0
x[865] 1
x[866] 0
x[867] 1
x[868] 0
x[869] 1
x[870] 0
x[871] 0
x[872] 0
x[873] 0
x[874] 1
x[875] 1
x[876] 1
x[877] 1
x[878] 0
x[879] 0
x[880] 0
x[881] 0
x[882] 1
x[883] 0
x[884] 1
x[885] 1
x[886] 1
x[887] 1
x[888] 1
x[889] 1
x[890] 1
x[891] 1
x[892] 1
x[893] 0
x[894] 1
x[895] 1
x[896] 1
x[897] 1
x[898] 1
x[899] 0
x[900] 1
x[901] 0
x[902] 0
x[903] 1
x[904] 0
x[905] 0
x[906] 0
x[907] 1
x[908] 1
x[909] 1
x[910] 1
x[911] 0
x[912] 1
x[913] 0
x[914] 0
x[915] 1
x[916] 1
x[917] 0
x[918] 1
x[919] 0
x[920] 1
x[921] 0
x[922] 0
x[923] 0
x[924] 1
x[925] 0
x[926] 1
x[927] 1
x[928] 1
x[929] 0
x[930] 1
x[931] 1
x[932] 0
x[933] 0
x[934] 0
x[935] 0
x[936] 1
x[937] 1
x[938] 1
x[939] 0
x[940] 0
x[941] 0
x[942] 0
x[943] 0
x[944] 1
x[945] 1
x[946] 0
x[947] 0
x[948] 1
x[949] 0
x[950] 1
x[951] 1
x[952] 1
x[953] 1
x[954] 0
x[955] 1
x[956] 1
x[957] 1
x[958] 1
x[959] 1
x[960] 0
x[961] 1
x[962] 0
x[963] 1
x[964] 1
x[965] 0
x[966] 0
x[967] 0
x[968] 1
x[969] 1
x[970] 0
x[971] 0
x[972] 0
x[973] 0
x[974] 1
x[975] 0
x[976] 0
x[977] 0
x[978] 1
x[979] 1
x[980] 0
x[981] 0
x[982] 1
x[983] 1
x[984] 1
x[985] 1
x[986] 0
x[987] 0
x[988] 1
x[989] 0
x[990] 0
x[991] 0
x[992] 0
x[993] 1
x[994] 1
x[995] 1
x[996] 1
x[997] 1
x[998] 0
x[999] 1
